
******************************************************************************
This program contains Ipopt, a library for large-scale nonlinear optimization.
 Ipopt is released as open source code under the Eclipse Public License (EPL).
         For more information visit https://github.com/coin-or/Ipopt
******************************************************************************

This is Ipopt version 3.14.14, running with linear solver MUMPS 5.6.2.

Number of nonzeros in equality constraint Jacobian...:        0
Number of nonzeros in inequality constraint Jacobian.:      100
Number of nonzeros in Lagrangian Hessian.............:        0

Total number of variables............................:       10
                     variables with only lower bounds:        0
                variables with lower and upper bounds:       10
                     variables with only upper bounds:        0
Total number of equality constraints.................:        0
Total number of inequality constraints...............:       10
        inequality constraints with only lower bounds:        0
   inequality constraints with lower and upper bounds:        0
        inequality constraints with only upper bounds:       10

iter    objective    inf_pr   inf_du lg(mu)  ||d||  lg(rg) alpha_du alpha_pr  ls
   0  1.0431472e-02 0.00e+00 5.91e-01   0.0 0.00e+00    -  0.00e+00 0.00e+00   0
   1  1.0431149e-02 0.00e+00 6.62e-03  -5.6 1.90e-04    -  9.89e-01 1.00e+00f  1
   2  1.0860995e-02 0.00e+00 8.47e-02  -1.6 7.07e+00    -  5.76e-02 1.73e-01f  1
   3  1.3506065e-02 0.00e+00 1.62e+00  -1.6 4.81e+00    -  1.55e-02 1.00e+00f  1
   4  1.3612971e-02 0.00e+00 5.46e-03  -1.6 2.18e+00    -  9.91e-01 1.00e+00h  1
   5  1.3068924e-02 0.00e+00 2.60e-04  -1.6 4.21e-01    -  1.00e+00 1.00e+00h  1
   6  1.2330088e-02 0.00e+00 1.51e-03  -2.5 2.98e-01    -  1.00e+00 1.00e+00h  1
   7  5.8709182e-03 0.00e+00 8.56e-03  -3.7 3.05e+00    -  4.66e-01 5.00e-01h  2
   8  3.9825011e-03 0.00e+00 6.71e-03  -3.2 1.92e+00    -  9.64e-01 1.00e+00h  1
   9  3.8505647e-03 0.00e+00 3.48e-02  -2.9 1.87e+00    -  1.00e+00 1.00e+00H  1
iter    objective    inf_pr   inf_du lg(mu)  ||d||  lg(rg) alpha_du alpha_pr  ls
  10  5.5476423e-03 0.00e+00 5.34e-02  -3.3 6.93e-01    -  1.00e+00 1.00e+00H  1
  11  6.7621768e-03 0.00e+00 7.16e-02  -2.4 6.96e+00    -  8.38e-01 2.19e-01h  2
  12  9.1852773e-03 0.00e+00 9.41e-03  -2.6 4.82e+00    -  8.93e-01 1.00e+00h  1
  13  8.4260598e-03 0.00e+00 7.46e-03  -2.6 2.24e+00    -  1.00e+00 1.00e+00h  1
  14  7.1912055e-03 0.00e+00 1.30e-02  -2.6 9.51e-01    -  1.00e+00 1.00e+00h  1
  15  4.8142455e-03 0.00e+00 2.77e-03  -3.2 1.31e+00    -  9.95e-01 1.00e+00h  1
  16  3.7723520e-03 0.00e+00 1.59e-03  -3.6 7.39e-01    -  9.20e-01 1.00e+00h  1
  17  2.0989405e-03 0.00e+00 8.57e-03  -4.1 7.24e-01    -  9.83e-01 1.00e+00h  1
  18  3.7675919e-03 2.02e-01 1.94e-02  -3.8 3.90e-01    -  9.18e-01 1.00e+00H  1
  19  3.4710092e-03 0.00e+00 1.33e-02  -9.9 7.05e-01    -  5.86e-04 1.16e-04H  1
iter    objective    inf_pr   inf_du lg(mu)  ||d||  lg(rg) alpha_du alpha_pr  ls
  20  3.8392353e-03 0.00e+00 2.80e-02  -3.4 8.17e-01    -  6.66e-01 2.36e-01h  3
  21  3.0647139e-03 0.00e+00 5.10e-03  -4.3 3.08e+00    -  4.44e-01 4.31e-01h  2
  22  2.1662561e-03 0.00e+00 6.70e-03  -3.5 7.91e-01    -  1.00e+00 1.00e+00h  1
  23  2.9869515e-03 3.67e-02 3.53e-02  -3.3 6.31e-01    -  1.00e+00 5.87e-01H  1
  24  1.1192059e-03 2.70e-01 4.95e-03  -3.6 2.22e-01    -  1.00e+00 1.00e+00h  1
  25  1.1382190e-03 0.00e+00 4.20e-03  -4.3 1.07e-01    -  7.19e-01 1.00e+00h  1
  26  1.0273666e-03 0.00e+00 3.38e-03  -4.1 3.76e-01    -  9.93e-01 2.50e-01h  3
  27  1.0679626e-03 0.00e+00 4.43e-03  -4.2 1.66e-01    -  1.00e+00 9.13e-01H  1
  28  8.7520141e-04 2.53e-02 1.42e-03  -5.4 5.12e-02    -  1.00e+00 1.00e+00h  1
  29  8.5783555e-04 2.88e-01 3.58e-03  -4.7 1.01e-01    -  1.00e+00 1.00e+00h  1
iter    objective    inf_pr   inf_du lg(mu)  ||d||  lg(rg) alpha_du alpha_pr  ls
  30  9.9131130e-04 0.00e+00 7.16e-03  -4.5 1.24e-01    -  1.00e+00 1.00e+00h  1
  31  9.2499127e-04 2.16e-02 6.62e-03  -4.3 4.25e-01    -  1.00e+00 2.50e-01h  3
  32  9.3284210e-04 3.55e-01 4.12e-03  -4.4 4.39e-01    -  7.53e-01 1.25e-01h  4
  33  9.0911706e-04 2.99e-01 3.11e-03  -4.4 2.31e-01    -  7.87e-01 1.32e-01h  2
  34  8.8180656e-04 2.72e-01 5.63e-03  -4.4 1.47e-01    -  1.00e+00 1.00e+00H  1
  35  8.2749785e-04 0.00e+00 5.15e-01  -4.4 1.20e-01    -  1.00e+00 4.45e-01h  2
  36  7.1996122e-04 3.08e-01 1.15e-02  -4.6 1.34e-01    -  1.00e+00 5.00e-01h  2
  37  6.9006754e-04 0.00e+00 3.90e-02  -5.1 1.32e-01    -  1.00e+00 1.00e+00h  1
  38  6.3442814e-04 6.84e+00 1.95e+00  -4.9 2.56e-01    -  1.00e+00 1.00e+00h  1
  39  2.5090152e-02 3.35e+00 4.41e-01  -4.9 3.33e-01    -  6.26e-01 9.33e-01h  1
iter    objective    inf_pr   inf_du lg(mu)  ||d||  lg(rg) alpha_du alpha_pr  ls
  40  1.7928350e-02 1.68e+00 1.60e-01  -5.1 1.13e+00    -  1.88e-02 1.00e+00h  1
  41  3.1475900e-03 1.41e+00 3.27e-02  -5.1 1.98e+02    -  8.71e-03 5.87e-03h  1
  42  6.1832794e-03 3.75e-01 4.42e-02  -5.1 3.11e+01    -  1.56e-02 1.46e-02h  2
  43  3.8431917e-03 0.00e+00 7.71e-03  -5.1 2.44e+01    -  7.29e-02 4.75e-02h  1
  44  3.8429767e-03 0.00e+00 2.64e-02  -5.1 4.18e-01    -  1.00e+00 9.17e-01f  1
  45  2.1910812e-03 1.14e+00 8.76e-03  -5.1 1.67e+00    -  2.55e-01 2.04e-01h  2
  46  2.4035150e-03 2.70e-01 6.89e-03  -5.1 3.32e+00    -  1.00e+00 4.79e-01h  1
  47  1.9844520e-03 2.89e+00 2.25e-02  -5.1 2.99e+00    -  8.84e-01 5.68e-01h  1
  48  1.1671672e-02 1.77e-01 1.12e-01  -5.1 4.57e+00    -  1.83e-01 8.39e-02h  2
  49  1.0814928e-02 0.00e+00 1.10e-01  -5.1 1.81e+00    -  9.39e-02 3.12e-02h  6
iter    objective    inf_pr   inf_du lg(mu)  ||d||  lg(rg) alpha_du alpha_pr  ls
  50  9.8614997e-03 0.00e+00 1.14e-01  -5.1 3.22e+00    -  8.20e-02 6.19e-02h  3
  51  1.6218521e-03 0.00e+00 1.04e-02  -5.1 2.89e+05    -  5.15e-06 2.02e-03f  3
  52  1.3693949e-03 1.26e-01 6.62e-03  -5.1 5.92e+02    -  3.85e-01 9.89e-01h  1
  53  1.4243481e-03 0.00e+00 7.71e-03  -5.1 4.28e+00    -  1.00e+00 5.31e-02h  1
  54  1.3559111e-03 0.00e+00 1.12e-02  -5.1 4.01e-02    -  1.00e+00 1.00e+00f  1
  55  1.2799164e-03 0.00e+00 4.22e-03  -5.1 6.28e-02    -  1.00e+00 1.00e+00h  1
  56  1.1874156e-03 2.98e-01 1.28e-02  -5.1 1.04e+00    -  6.22e-01 2.50e-01h  3
  57  1.1086903e-03 1.31e-01 1.18e-02  -5.1 4.82e-01    -  1.00e+00 1.36e-01h  2
  58  1.0044344e-03 1.20e-03 1.23e-03  -5.1 7.45e-01    -  1.00e+00 7.95e-01H  1
  59  9.9432889e-04 0.00e+00 3.66e-03  -5.1 6.02e-01    -  1.00e+00 1.00e+00h  1
iter    objective    inf_pr   inf_du lg(mu)  ||d||  lg(rg) alpha_du alpha_pr  ls
  60  9.3941220e-04 0.00e+00 4.10e-03  -5.1 2.90e+00    -  5.69e-01 2.55e-02h  4
  61  9.2036443e-04 0.00e+00 4.78e-03  -5.1 5.17e-01    -  1.00e+00 6.25e-02h  5
  62  8.5049552e-04 0.00e+00 5.66e-03  -5.1 3.70e-01    -  1.00e+00 9.24e-01h  1
  63  8.0373739e-04 0.00e+00 9.43e-03  -5.1 2.51e-01    -  1.00e+00 1.00e+00f  1
  64  1.0497940e-03 0.00e+00 5.33e-03  -4.2 1.49e+00    -  1.00e+00 9.81e-01H  1
  65  1.0586981e-03 2.85e+00 1.29e-02  -4.3 3.81e-01    -  1.00e+00 1.00e+00h  1
  66  9.7870753e-04 2.43e+00 7.71e-03  -4.3 1.04e+00    -  6.36e-01 1.17e-01h  3
  67  1.0000916e-03 1.63e+00 6.32e-03  -4.3 9.64e-01    -  1.00e+00 2.50e-01h  3
  68  9.1270099e-04 2.17e+00 1.21e-02  -4.3 4.94e+00    -  1.00e+00 1.65e-01h  2
  69  7.9759067e-04 0.00e+00 3.34e-03  -4.3 6.60e-01    -  9.67e-01 5.00e-01h  2
iter    objective    inf_pr   inf_du lg(mu)  ||d||  lg(rg) alpha_du alpha_pr  ls
  70  8.1008592e-04 6.67e+00 7.51e-02  -4.3 1.63e+01    -  4.83e-01 2.08e-01h  3
  71  8.0709886e-04 4.68e+00 3.00e-02  -4.3 1.46e+00    -  1.00e+00 1.96e-01h  2
  72  8.3742616e-04 1.51e+00 7.19e-03  -4.3 1.28e+01    -  7.66e-01 2.50e-01h  3
  73  8.4040292e-04 1.73e+00 5.93e-03  -4.3 1.23e+01    -  1.00e+00 1.63e-01h  3
  74  7.8593896e-04 1.05e+00 1.98e-03  -4.3 6.78e+00    -  1.00e+00 4.43e-01h  2
  75  8.1123059e-04 1.23e+00 4.96e-03  -4.3 8.21e+00    -  6.61e-01 9.16e-02h  3
  76  2.7279565e-02 4.33e+00 5.03e-01  -4.3 3.25e+00    -  1.00e+00 6.95e-01w  1
  77  1.1811448e-02 3.74e+00 2.34e-01  -4.3 7.50e-01    -  1.39e-01 1.86e-01w  1
  78  7.9210309e-03 7.16e-01 1.07e-01  -4.3 2.68e+01    -  8.76e-02 5.14e-01w  1
  79  7.8651643e-04 1.22e+00 4.19e-03  -4.3 5.43e+00    -  1.00e+00 8.68e-02h  3
iter    objective    inf_pr   inf_du lg(mu)  ||d||  lg(rg) alpha_du alpha_pr  ls
  80  8.1805457e-04 8.44e-01 4.95e-03  -4.3 1.16e+00    -  1.00e+00 2.50e-01h  3
  81  1.0479120e-03 3.19e-01 6.18e-03  -4.3 1.86e+00    -  1.00e+00 9.04e-01h  1
  82  2.3469391e-03 0.00e+00 9.75e-03  -4.3 4.38e-01    -  1.00e+00 1.00e+00h  1
  83  4.5071686e-03 2.16e-01 1.02e-01  -4.3 5.54e-01    -  8.33e-01 7.91e-01h  1
  84  2.5452453e-03 7.29e-03 5.27e-02  -4.3 1.70e+00    -  3.71e-01 2.50e-01h  3
  85  1.4818914e-03 0.00e+00 9.17e-03  -4.3 2.09e+00    -  1.69e-01 2.10e-01h  1
  86  1.5766224e-03 0.00e+00 2.92e-02  -4.3 1.14e+00    -  1.80e-01 1.24e-01f  2
  87  1.3990561e-03 0.00e+00 9.02e-03  -4.3 2.09e-01    -  1.00e+00 1.00e+00h  1
  88  1.3923774e-03 0.00e+00 3.63e-03  -4.3 6.36e-01    -  1.00e+00 1.92e-01h  3
  89  1.2768934e-03 0.00e+00 2.18e-03  -4.8 2.76e-01    -  9.99e-01 5.00e-01h  2
iter    objective    inf_pr   inf_du lg(mu)  ||d||  lg(rg) alpha_du alpha_pr  ls
  90  1.2276326e-03 5.77e-01 1.30e-02  -4.8 5.87e-01    -  5.79e-01 2.77e-01h  2
  91  1.4324811e-03 0.00e+00 4.65e-03  -4.8 9.17e-01    -  1.89e-01 3.24e-01h  2
  92  1.3523191e-03 0.00e+00 5.47e-03  -4.8 2.90e-02    -  1.00e+00 1.00e+00h  1
  93  1.3504012e-03 0.00e+00 2.35e-03  -4.8 1.81e-02    -  1.00e+00 1.00e+00h  1
  94  1.3351757e-03 0.00e+00 2.03e-03  -6.7 4.83e-02    -  1.00e+00 1.00e+00h  1
  95  1.2319501e-03 4.73e-01 7.93e-03  -6.6 3.66e-02    -  1.00e+00 1.00e+00h  1
  96  1.1068528e-03 6.19e-01 1.19e-02  -6.7 2.77e-01    -  7.92e-01 1.46e-01h  1
  97  2.7808062e-03 3.38e-01 4.03e-02  -6.7 9.23e-02    -  1.00e+00 1.00e+00h  1
  98  1.0723592e-03 4.34e-01 3.23e-03  -6.7 9.10e-02    -  2.04e-01 1.00e+00h  1
  99  1.1092758e-03 2.48e-01 4.73e-03  -6.7 1.36e-02    -  3.24e-01 4.45e-01h  1
iter    objective    inf_pr   inf_du lg(mu)  ||d||  lg(rg) alpha_du alpha_pr  ls
 100  1.1631478e-03 6.68e-02 2.23e-03  -6.7 1.43e-02    -  1.00e+00 7.53e-01h  1

Number of Iterations....: 100

                                   (scaled)                 (unscaled)
Objective...............:   1.1631477624939636e-03    1.1631477624939636e-03
Dual infeasibility......:   2.2269254715224329e-03    2.2269254715224329e-03
Constraint violation....:   6.6846466765756174e-02    6.6846466765756174e-02
Variable bound violation:   0.0000000000000000e+00    0.0000000000000000e+00
Complementarity.........:   2.5885730546198225e-07    2.5885730546198225e-07
Overall NLP error.......:   6.6846466765756174e-02    6.6846466765756174e-02


Number of objective function evaluations             = 236
Number of objective gradient evaluations             = 101
Number of equality constraint evaluations            = 0
Number of inequality constraint evaluations          = 236
Number of equality constraint Jacobian evaluations   = 0
Number of inequality constraint Jacobian evaluations = 101
Number of Lagrangian Hessian evaluations             = 0
Total seconds in IPOPT                               = 67.990

EXIT: Maximum Number of Iterations Exceeded.
